(set-logic ALL)
(declare-fun seed0_T_1 () Bool)
(declare-fun seed0_var_0xINPUT_4936 () String)
(assert (and (or (= seed0_T_1 (not (= "" seed0_var_0xINPUT_4936))) (not (str.<= (str.++ seed0_var_0xINPUT_4936 "") (str.++ seed0_var_0xINPUT_4936 "P82e1YHTm")))) (or seed0_T_1 (or (str.<= (str.++ seed0_var_0xINPUT_4936 "wyzsBWrpjFoand0lgvRU") (str.++ seed0_var_0xINPUT_4936 "OcK")) (str.suffixof (str.++ seed0_var_0xINPUT_4936 "I") (str.++ seed0_var_0xINPUT_4936 "FWZAaftgC2vb6TY"))))))
(check-sat)
(exit)